(declare-const term_to_project_onto Real)
(declare-const y Int)
(declare-const term_to_project_onto0 Real)
(declare-const |y'| Int)
(declare-const |x'| Int)
(declare-const x Int)
(assert (and (<= (- y) 0) (<= (- x) 0) (<= (+ (- x) 1) 0)
               (= (+ |y'| (- y) -1) 0) (= (+ |x'| (- x) 1) 0)
               (= term_to_project_onto0 (+ |x'| (- x)))
               (= term_to_project_onto (+ |y'| (- y)))))
(check-sat)
